p cnf 12 20
12 11 -10 0
-12 -11 2 0
-12 -9 -5 0
11 10 2 0
11 -9 -8 0
11 8 7 0
-11 -6 5 0
11 6 2 0
-10 -6 -1 0
10 -5 3 0
9 -4 -1 0
-8 7 -2 0
8 2 -1 0
7 5 -2 0
-7 -4 1 0
-6 -3 -1 0
5 -4 2 0
5 -4 -1 0
-5 3 1 0
-4 -3 -2 0
